NumberOfAtoms        12

NumberOfSpecies       4

LatticeConstant       3.6 Ang 

PAO.BasisSize       DZP
PAO.SplitNorm	    0.18

%block ChemicalSpeciesLabel
1  1  H
3  7  N
2  3  Li
4  11 Na
%endblock ChemicalSpeciesLabel

%block LatticeVectors          
6.2500  0.00000  0.00000
0.00000  5.2500  0.00000
0.00000  0.00000  9.96642789677
%endblock LatticeVectors

AtomicCoordinatesFormat   ScaledCartesian

%block AtomicCoordinatesAndAtomicSpecies
3.125  3.125  0.5  4
3.125  3.125  1.5  4
3.125  3.125  2.5  4
3.125  3.125  3.5  4
3.125  3.125  4.5  2
3.125  3.45518759677  4.98321394839  3
3.125  3.78851143226  4.98321394839  1
3.125  3.125  5.46642789677  2
3.125  3.125  6.46642789677  4
3.125  3.125  7.46642789677  4
3.125  3.125  8.46642789677  4
3.125  3.125  9.46642789677  4
%endblock AtomicCoordinatesAndAtomicSpecies
