NumberOfAtoms         4      
NumberOfSpecies       1       
LatticeConstant       2.1 Ang 

%block ChemicalSpeciesLabel
  1  4  Be 
%endblock ChemicalSpeciesLabel

%block LatticeVectors          
 6.00000  0.00000  0.00000
 0.00000  5.00000  0.00000 
 0.00000  0.00000  4.00000
%endblock LatticeVectors

AtomicCoordinatesFormat   ScaledCartesian  

%block AtomicCoordinatesAndAtomicSpecies
 3.00000  2.50000  0.50000  1 
 3.00000  2.50000  1.50000  1
 3.00000  2.50000  2.50000  1
 3.00000  2.50000  3.50000  1
%endblock AtomicCoordinatesAndAtomicSpecies
