NumberOfAtoms         10      
NumberOfSpecies       2
LatticeConstant       2.0 Ang  

%block ChemicalSpeciesLabel
  1  3 Li
  2  4 Be
%endblock ChemicalSpeciesLabel

%block LatticeVectors          
 6.00000  0.00000  0.00000
 0.00000  5.00000  0.00000 
 0.00000  0.00000  11.00000
%endblock LatticeVectors

AtomicCoordinatesFormat   ScaledCartesian  

%block AtomicCoordinatesAndAtomicSpecies
2.5 2.5 0.5000000000000 2
2.5 2.5 1.5000000000000 2
2.5 2.5 2.500000000000 2
2.5 2.5 3.500000000000 2
2.5 2.5 4.788000000000 1
2.5 2.5 6.288000000000 1
2.5 2.5 7.576000000000 2
2.5 2.5 8.576000000000 2
2.5 2.5 9.576000000000 2
2.5 2.5 10.57600000000 2
%endblock AtomicCoordinatesAndAtomicSpecies
