NumberOfAtoms         10      
NumberOfSpecies       1
LatticeConstant       3.0 Ang  

%block ChemicalSpeciesLabel
  1  3 Li
%endblock ChemicalSpeciesLabel

%block LatticeVectors          
 5.00000  0.00000  0.00000
 0.00000  5.00000  0.00000 
 0.00000  0.00000  10.00000
%endblock LatticeVectors

AtomicCoordinatesFormat   ScaledCartesian  

%block AtomicCoordinatesAndAtomicSpecies
2.5 2.5 0.5000000000000 1
2.5 2.5 1.5000000000000 1
2.5 2.5 2.500000000000 1
2.5 2.5 3.500000000000 1
2.5 2.5 4.500000000000 1
2.5 2.5 5.500000000000 1
2.5 2.5 6.500000000000 1
2.5 2.5 7.500000000000 1
2.5 2.5 8.500000000000 1
2.5 2.5 9.500000000000 1
%endblock AtomicCoordinatesAndAtomicSpecies

